<?xml version="1.0" encoding="UTF-8"?><osil xmlns="os.optimizationservices.org"   xmlns:xsi="http://www.w3.org/2001/XMLSchema-instance" xsi:schemaLocation="os.optimizationservices.org http://www.optimizationservices.org/schemas/2.0/OSiL.xsd" ><instanceHeader><name>q_50_0_25_2</name></instanceHeader><instanceData><variables numberOfVariables="50"><var name="x1" ub="1"/><var name="x2" ub="1"/><var name="x3" ub="1"/><var name="x4" ub="1"/><var name="x5" ub="1"/><var name="x6" ub="1"/><var name="x7" ub="1"/><var name="x8" ub="1"/><var name="x9" ub="1"/><var name="x10" ub="1"/><var name="x11" ub="1"/><var name="x12" ub="1"/><var name="x13" ub="1"/><var name="x14" ub="1"/><var name="x15" ub="1"/><var name="x16" ub="1"/><var name="x17" ub="1"/><var name="x18" ub="1"/><var name="x19" ub="1"/><var name="x20" ub="1"/><var name="x21" ub="1"/><var name="x22" ub="1"/><var name="x23" ub="1"/><var name="x24" ub="1"/><var name="x25" ub="1"/><var name="x26" ub="1"/><var name="x27" ub="1"/><var name="x28" ub="1"/><var name="x29" ub="1"/><var name="x30" ub="1"/><var name="x31" ub="1"/><var name="x32" ub="1"/><var name="x33" ub="1"/><var name="x34" ub="1"/><var name="x35" ub="1"/><var name="x36" ub="1"/><var name="x37" ub="1"/><var name="x38" ub="1"/><var name="x39" ub="1"/><var name="x40" ub="1"/><var name="x41" ub="1"/><var name="x42" ub="1"/><var name="x43" ub="1"/><var name="x44" ub="1"/><var name="x45" ub="1"/><var name="x46" ub="1"/><var name="x47" ub="1"/><var name="x48" ub="1"/><var name="x49" ub="1"/><var name="x50" ub="1"/></variables><objectives numberOfObjectives="1"><obj maxOrMin="min" name="defObj_x51" numberOfObjCoef="50"><coef idx="0">.8807</coef><coef idx="1">-.7634</coef><coef idx="2">.217</coef><coef idx="3">-5.49e-2</coef><coef idx="4">-.9422</coef><coef idx="5">-.9389</coef><coef idx="6">-.2805</coef><coef idx="7">-.3906</coef><coef idx="8">.8925</coef><coef idx="9">.359</coef><coef idx="10">-.3714</coef><coef idx="11">-.5488</coef><coef idx="12">.1483</coef><coef idx="13">.225</coef><coef idx="14">.7272</coef><coef idx="15">-.8881</coef><coef idx="16">-2.11e-2</coef><coef idx="17">-.4108</coef><coef idx="18">-4.34e-2</coef><coef idx="19">-.7799</coef><coef idx="20">-.4614</coef><coef idx="21">-8.65e-2</coef><coef idx="22">.3207</coef><coef idx="23">4.31e-2</coef><coef idx="24">.8559</coef><coef idx="25">-.2257</coef><coef idx="26">-.1022</coef><coef idx="27">-.5768</coef><coef idx="28">-.8797</coef><coef idx="29">.3955</coef><coef idx="30">.7964</coef><coef idx="31">.2734</coef><coef idx="32">8.95e-2</coef><coef idx="33">-.4146</coef><coef idx="34">.9077</coef><coef idx="35">-.1895</coef><coef idx="36">.994</coef><coef idx="37">-.6899</coef><coef idx="38">.9394</coef><coef idx="39">-.2503</coef><coef idx="40">-.2187</coef><coef idx="41">-.1793</coef><coef idx="42">.9029</coef><coef idx="43">.1218</coef><coef idx="44">.2453</coef><coef idx="45">.7306</coef><coef idx="46">-.2001</coef><coef idx="47">.7936</coef><coef idx="48">-.7984</coef><coef idx="49">-.589</coef></obj></objectives><quadraticCoefficients  numberOfQuadraticTerms="318" ><qTerm  idx="-1"  idxOne="0"  idxTwo="13"  coef=".3895"/><qTerm  idx="-1"  idxOne="0"  idxTwo="20"  coef=".2896"/><qTerm  idx="-1"  idxOne="0"  idxTwo="26"  coef="1.8013"/><qTerm  idx="-1"  idxOne="0"  idxTwo="29"  coef="1.301"/><qTerm  idx="-1"  idxOne="0"  idxTwo="34"  coef="-.1951"/><qTerm  idx="-1"  idxOne="0"  idxTwo="35"  coef="-1.1231"/><qTerm  idx="-1"  idxOne="0"  idxTwo="37"  coef=".992"/><qTerm  idx="-1"  idxOne="0"  idxTwo="43"  coef="-.7754"/><qTerm  idx="-1"  idxOne="1"  idxTwo="9"  coef="-.1996"/><qTerm  idx="-1"  idxOne="1"  idxTwo="12"  coef="-1.5304"/><qTerm  idx="-1"  idxOne="1"  idxTwo="13"  coef="1.0756"/><qTerm  idx="-1"  idxOne="1"  idxTwo="16"  coef="-.6608"/><qTerm  idx="-1"  idxOne="1"  idxTwo="19"  coef="1.3732"/><qTerm  idx="-1"  idxOne="1"  idxTwo="29"  coef="-.2715"/><qTerm  idx="-1"  idxOne="1"  idxTwo="30"  coef=".9367"/><qTerm  idx="-1"  idxOne="1"  idxTwo="36"  coef="-5.89e-2"/><qTerm  idx="-1"  idxOne="1"  idxTwo="44"  coef="-1.8626"/><qTerm  idx="-1"  idxOne="1"  idxTwo="46"  coef="-4.55e-2"/><qTerm  idx="-1"  idxOne="1"  idxTwo="48"  coef="-.3215"/><qTerm  idx="-1"  idxOne="1"  idxTwo="49"  coef="-1.8829"/><qTerm  idx="-1"  idxOne="2"  idxTwo="19"  coef=".5207"/><qTerm  idx="-1"  idxOne="2"  idxTwo="23"  coef="1.0674"/><qTerm  idx="-1"  idxOne="2"  idxTwo="24"  coef="-.9807"/><qTerm  idx="-1"  idxOne="2"  idxTwo="29"  coef="-.2704"/><qTerm  idx="-1"  idxOne="3"  idxTwo="5"  coef="-1.1331"/><qTerm  idx="-1"  idxOne="3"  idxTwo="8"  coef="-1.2915"/><qTerm  idx="-1"  idxOne="3"  idxTwo="14"  coef="-1.4342"/><qTerm  idx="-1"  idxOne="3"  idxTwo="15"  coef=".9868"/><qTerm  idx="-1"  idxOne="3"  idxTwo="16"  coef="-1.9387"/><qTerm  idx="-1"  idxOne="3"  idxTwo="18"  coef="-.964"/><qTerm  idx="-1"  idxOne="3"  idxTwo="24"  coef="-1.9254"/><qTerm  idx="-1"  idxOne="3"  idxTwo="31"  coef="-1.3081"/><qTerm  idx="-1"  idxOne="3"  idxTwo="34"  coef="1.5268"/><qTerm  idx="-1"  idxOne="3"  idxTwo="40"  coef="-1.1491"/><qTerm  idx="-1"  idxOne="3"  idxTwo="44"  coef=".8925"/><qTerm  idx="-1"  idxOne="3"  idxTwo="45"  coef="-1.1592"/><qTerm  idx="-1"  idxOne="3"  idxTwo="47"  coef="1.4121"/><qTerm  idx="-1"  idxOne="3"  idxTwo="48"  coef="-5.22e-2"/><qTerm  idx="-1"  idxOne="4"  idxTwo="11"  coef="-1.3842"/><qTerm  idx="-1"  idxOne="4"  idxTwo="13"  coef="-1.6924"/><qTerm  idx="-1"  idxOne="4"  idxTwo="16"  coef="-.961"/><qTerm  idx="-1"  idxOne="4"  idxTwo="17"  coef="-.3628"/><qTerm  idx="-1"  idxOne="4"  idxTwo="19"  coef="1.7043"/><qTerm  idx="-1"  idxOne="4"  idxTwo="23"  coef="1.1491"/><qTerm  idx="-1"  idxOne="4"  idxTwo="28"  coef=".4809"/><qTerm  idx="-1"  idxOne="4"  idxTwo="30"  coef="-.5533"/><qTerm  idx="-1"  idxOne="4"  idxTwo="33"  coef="6.e-4"/><qTerm  idx="-1"  idxOne="4"  idxTwo="34"  coef=".9615"/><qTerm  idx="-1"  idxOne="4"  idxTwo="41"  coef=".4407"/><qTerm  idx="-1"  idxOne="4"  idxTwo="42"  coef="-1.8822"/><qTerm  idx="-1"  idxOne="4"  idxTwo="45"  coef="-.9916"/><qTerm  idx="-1"  idxOne="4"  idxTwo="46"  coef="-.6117"/><qTerm  idx="-1"  idxOne="4"  idxTwo="48"  coef="1.8439"/><qTerm  idx="-1"  idxOne="5"  idxTwo="5"  coef=".292"/><qTerm  idx="-1"  idxOne="5"  idxTwo="9"  coef="-1.1801"/><qTerm  idx="-1"  idxOne="5"  idxTwo="14"  coef="-1.7565"/><qTerm  idx="-1"  idxOne="5"  idxTwo="15"  coef="-.8095"/><qTerm  idx="-1"  idxOne="5"  idxTwo="16"  coef=".9478"/><qTerm  idx="-1"  idxOne="5"  idxTwo="17"  coef="1.604"/><qTerm  idx="-1"  idxOne="5"  idxTwo="21"  coef="-.8947"/><qTerm  idx="-1"  idxOne="5"  idxTwo="24"  coef=".3059"/><qTerm  idx="-1"  idxOne="5"  idxTwo="30"  coef="-1.6445"/><qTerm  idx="-1"  idxOne="5"  idxTwo="33"  coef="1.3957"/><qTerm  idx="-1"  idxOne="5"  idxTwo="36"  coef="-.5934"/><qTerm  idx="-1"  idxOne="5"  idxTwo="41"  coef=".9036"/><qTerm  idx="-1"  idxOne="5"  idxTwo="47"  coef="1.0884"/><qTerm  idx="-1"  idxOne="6"  idxTwo="9"  coef=".4666"/><qTerm  idx="-1"  idxOne="6"  idxTwo="24"  coef="-1.344"/><qTerm  idx="-1"  idxOne="6"  idxTwo="25"  coef="-.1026"/><qTerm  idx="-1"  idxOne="6"  idxTwo="26"  coef="5.11e-2"/><qTerm  idx="-1"  idxOne="6"  idxTwo="30"  coef="1.9794"/><qTerm  idx="-1"  idxOne="6"  idxTwo="37"  coef="1.0417"/><qTerm  idx="-1"  idxOne="6"  idxTwo="41"  coef="-.1842"/><qTerm  idx="-1"  idxOne="6"  idxTwo="46"  coef="1.1762"/><qTerm  idx="-1"  idxOne="6"  idxTwo="47"  coef="-1.3357"/><qTerm  idx="-1"  idxOne="7"  idxTwo="9"  coef="-1.2149"/><qTerm  idx="-1"  idxOne="7"  idxTwo="12"  coef="-.2866"/><qTerm  idx="-1"  idxOne="7"  idxTwo="25"  coef="-1.8953"/><qTerm  idx="-1"  idxOne="7"  idxTwo="30"  coef="1.7146"/><qTerm  idx="-1"  idxOne="7"  idxTwo="33"  coef="-.7355"/><qTerm  idx="-1"  idxOne="7"  idxTwo="35"  coef="1.9858"/><qTerm  idx="-1"  idxOne="7"  idxTwo="41"  coef="1.5597"/><qTerm  idx="-1"  idxOne="7"  idxTwo="43"  coef="-.1736"/><qTerm  idx="-1"  idxOne="8"  idxTwo="11"  coef="-.2521"/><qTerm  idx="-1"  idxOne="8"  idxTwo="17"  coef="-.9347"/><qTerm  idx="-1"  idxOne="8"  idxTwo="18"  coef=".3636"/><qTerm  idx="-1"  idxOne="8"  idxTwo="19"  coef=".4155"/><qTerm  idx="-1"  idxOne="8"  idxTwo="21"  coef="-.6942"/><qTerm  idx="-1"  idxOne="8"  idxTwo="23"  coef=".388"/><qTerm  idx="-1"  idxOne="8"  idxTwo="24"  coef="1.2276"/><qTerm  idx="-1"  idxOne="8"  idxTwo="28"  coef="-.5358"/><qTerm  idx="-1"  idxOne="8"  idxTwo="30"  coef="-.3757"/><qTerm  idx="-1"  idxOne="8"  idxTwo="33"  coef="1.3082"/><qTerm  idx="-1"  idxOne="8"  idxTwo="34"  coef="-.1738"/><qTerm  idx="-1"  idxOne="8"  idxTwo="37"  coef=".4123"/><qTerm  idx="-1"  idxOne="8"  idxTwo="41"  coef="-.4915"/><qTerm  idx="-1"  idxOne="8"  idxTwo="44"  coef="-1.2459"/><qTerm  idx="-1"  idxOne="8"  idxTwo="46"  coef="1.8446"/><qTerm  idx="-1"  idxOne="9"  idxTwo="11"  coef="-1.6421"/><qTerm  idx="-1"  idxOne="9"  idxTwo="12"  coef="-.6318"/><qTerm  idx="-1"  idxOne="9"  idxTwo="15"  coef="-1.5505"/><qTerm  idx="-1"  idxOne="9"  idxTwo="19"  coef="-1.598"/><qTerm  idx="-1"  idxOne="9"  idxTwo="25"  coef=".7138"/><qTerm  idx="-1"  idxOne="9"  idxTwo="26"  coef="1.7701"/><qTerm  idx="-1"  idxOne="9"  idxTwo="31"  coef="-.7374"/><qTerm  idx="-1"  idxOne="9"  idxTwo="32"  coef=".1511"/><qTerm  idx="-1"  idxOne="9"  idxTwo="40"  coef=".2156"/><qTerm  idx="-1"  idxOne="9"  idxTwo="42"  coef="1.4166"/><qTerm  idx="-1"  idxOne="9"  idxTwo="45"  coef="1.1905"/><qTerm  idx="-1"  idxOne="10"  idxTwo="18"  coef="-1.6225"/><qTerm  idx="-1"  idxOne="10"  idxTwo="22"  coef="-1.804"/><qTerm  idx="-1"  idxOne="10"  idxTwo="24"  coef="-.5831"/><qTerm  idx="-1"  idxOne="10"  idxTwo="25"  coef="1.3806"/><qTerm  idx="-1"  idxOne="10"  idxTwo="32"  coef="1.2129"/><qTerm  idx="-1"  idxOne="10"  idxTwo="35"  coef="-1.3779"/><qTerm  idx="-1"  idxOne="10"  idxTwo="37"  coef="-9.24e-2"/><qTerm  idx="-1"  idxOne="10"  idxTwo="39"  coef="1.0089"/><qTerm  idx="-1"  idxOne="10"  idxTwo="45"  coef="-8.1e-2"/><qTerm  idx="-1"  idxOne="10"  idxTwo="47"  coef=".4695"/><qTerm  idx="-1"  idxOne="11"  idxTwo="14"  coef=".6768"/><qTerm  idx="-1"  idxOne="11"  idxTwo="17"  coef="-.226"/><qTerm  idx="-1"  idxOne="11"  idxTwo="19"  coef="3.99e-2"/><qTerm  idx="-1"  idxOne="11"  idxTwo="20"  coef="1.2849"/><qTerm  idx="-1"  idxOne="11"  idxTwo="21"  coef="1.0889"/><qTerm  idx="-1"  idxOne="11"  idxTwo="28"  coef="-.1742"/><qTerm  idx="-1"  idxOne="11"  idxTwo="40"  coef="-1.5454"/><qTerm  idx="-1"  idxOne="11"  idxTwo="47"  coef="1.5431"/><qTerm  idx="-1"  idxOne="11"  idxTwo="48"  coef=".3521"/><qTerm  idx="-1"  idxOne="12"  idxTwo="15"  coef="-1.1345"/><qTerm  idx="-1"  idxOne="12"  idxTwo="22"  coef=".382"/><qTerm  idx="-1"  idxOne="12"  idxTwo="24"  coef="-1.0961"/><qTerm  idx="-1"  idxOne="12"  idxTwo="30"  coef=".5028"/><qTerm  idx="-1"  idxOne="12"  idxTwo="31"  coef="1.2022"/><qTerm  idx="-1"  idxOne="12"  idxTwo="32"  coef="1.6077"/><qTerm  idx="-1"  idxOne="12"  idxTwo="44"  coef="-1.7464"/><qTerm  idx="-1"  idxOne="13"  idxTwo="20"  coef=".2352"/><qTerm  idx="-1"  idxOne="13"  idxTwo="24"  coef=".9586"/><qTerm  idx="-1"  idxOne="13"  idxTwo="32"  coef="1.8636"/><qTerm  idx="-1"  idxOne="13"  idxTwo="34"  coef=".9576"/><qTerm  idx="-1"  idxOne="13"  idxTwo="36"  coef="-1.8284"/><qTerm  idx="-1"  idxOne="13"  idxTwo="37"  coef="-.858"/><qTerm  idx="-1"  idxOne="13"  idxTwo="39"  coef="-1.6835"/><qTerm  idx="-1"  idxOne="13"  idxTwo="40"  coef="-1.8846"/><qTerm  idx="-1"  idxOne="13"  idxTwo="41"  coef="-.6707"/><qTerm  idx="-1"  idxOne="13"  idxTwo="46"  coef="-1.4392"/><qTerm  idx="-1"  idxOne="14"  idxTwo="17"  coef="-1.3869"/><qTerm  idx="-1"  idxOne="14"  idxTwo="25"  coef="1.8485"/><qTerm  idx="-1"  idxOne="14"  idxTwo="28"  coef="-.7583"/><qTerm  idx="-1"  idxOne="14"  idxTwo="32"  coef="-1.6437"/><qTerm  idx="-1"  idxOne="14"  idxTwo="35"  coef="-1.5327"/><qTerm  idx="-1"  idxOne="14"  idxTwo="41"  coef="1.0939"/><qTerm  idx="-1"  idxOne="14"  idxTwo="45"  coef="1.9647"/><qTerm  idx="-1"  idxOne="15"  idxTwo="23"  coef="1.6982"/><qTerm  idx="-1"  idxOne="15"  idxTwo="25"  coef="1.6386"/><qTerm  idx="-1"  idxOne="15"  idxTwo="33"  coef="1.6705"/><qTerm  idx="-1"  idxOne="15"  idxTwo="35"  coef="-1.6331"/><qTerm  idx="-1"  idxOne="15"  idxTwo="36"  coef="-1.5399"/><qTerm  idx="-1"  idxOne="15"  idxTwo="41"  coef="-.7638"/><qTerm  idx="-1"  idxOne="15"  idxTwo="44"  coef=".4177"/><qTerm  idx="-1"  idxOne="15"  idxTwo="45"  coef="-.6973"/><qTerm  idx="-1"  idxOne="15"  idxTwo="47"  coef="-.6886"/><qTerm  idx="-1"  idxOne="15"  idxTwo="48"  coef="-1.6114"/><qTerm  idx="-1"  idxOne="16"  idxTwo="18"  coef="1.3387"/><qTerm  idx="-1"  idxOne="16"  idxTwo="21"  coef="1.7997"/><qTerm  idx="-1"  idxOne="16"  idxTwo="23"  coef="-1.9949"/><qTerm  idx="-1"  idxOne="16"  idxTwo="24"  coef=".9135"/><qTerm  idx="-1"  idxOne="16"  idxTwo="29"  coef="-1.7542"/><qTerm  idx="-1"  idxOne="16"  idxTwo="34"  coef="-1.9481"/><qTerm  idx="-1"  idxOne="16"  idxTwo="35"  coef=".9083"/><qTerm  idx="-1"  idxOne="16"  idxTwo="37"  coef=".6688"/><qTerm  idx="-1"  idxOne="16"  idxTwo="40"  coef="-1.726"/><qTerm  idx="-1"  idxOne="16"  idxTwo="44"  coef=".6296"/><qTerm  idx="-1"  idxOne="17"  idxTwo="19"  coef="-6.65e-2"/><qTerm  idx="-1"  idxOne="17"  idxTwo="27"  coef="-1.2534"/><qTerm  idx="-1"  idxOne="17"  idxTwo="28"  coef="-.8291"/><qTerm  idx="-1"  idxOne="17"  idxTwo="30"  coef="-.1403"/><qTerm  idx="-1"  idxOne="17"  idxTwo="37"  coef="-.8122"/><qTerm  idx="-1"  idxOne="17"  idxTwo="38"  coef="-.7224"/><qTerm  idx="-1"  idxOne="18"  idxTwo="26"  coef=".3169"/><qTerm  idx="-1"  idxOne="18"  idxTwo="27"  coef="-1.6463"/><qTerm  idx="-1"  idxOne="18"  idxTwo="28"  coef="-1.765"/><qTerm  idx="-1"  idxOne="18"  idxTwo="32"  coef="1.5223"/><qTerm  idx="-1"  idxOne="18"  idxTwo="34"  coef="-.9697"/><qTerm  idx="-1"  idxOne="18"  idxTwo="36"  coef="-1.4488"/><qTerm  idx="-1"  idxOne="18"  idxTwo="37"  coef="-1.866"/><qTerm  idx="-1"  idxOne="18"  idxTwo="40"  coef="1.6497"/><qTerm  idx="-1"  idxOne="18"  idxTwo="43"  coef="1.6343"/><qTerm  idx="-1"  idxOne="18"  idxTwo="45"  coef="-1.3906"/><qTerm  idx="-1"  idxOne="19"  idxTwo="21"  coef="-1.8172"/><qTerm  idx="-1"  idxOne="19"  idxTwo="23"  coef="1.6561"/><qTerm  idx="-1"  idxOne="19"  idxTwo="24"  coef="-1.5176"/><qTerm  idx="-1"  idxOne="19"  idxTwo="25"  coef="1.573"/><qTerm  idx="-1"  idxOne="19"  idxTwo="33"  coef="1.6562"/><qTerm  idx="-1"  idxOne="19"  idxTwo="34"  coef="1.2292"/><qTerm  idx="-1"  idxOne="19"  idxTwo="37"  coef=".932"/><qTerm  idx="-1"  idxOne="19"  idxTwo="44"  coef="1.3589"/><qTerm  idx="-1"  idxOne="19"  idxTwo="45"  coef=".703"/><qTerm  idx="-1"  idxOne="19"  idxTwo="47"  coef="-1.8189"/><qTerm  idx="-1"  idxOne="19"  idxTwo="49"  coef="-1.224"/><qTerm  idx="-1"  idxOne="20"  idxTwo="22"  coef=".3375"/><qTerm  idx="-1"  idxOne="20"  idxTwo="23"  coef="-.9075"/><qTerm  idx="-1"  idxOne="20"  idxTwo="29"  coef="-.4901"/><qTerm  idx="-1"  idxOne="20"  idxTwo="32"  coef="-1.7392"/><qTerm  idx="-1"  idxOne="20"  idxTwo="35"  coef="1.0012"/><qTerm  idx="-1"  idxOne="20"  idxTwo="39"  coef="-1.1637"/><qTerm  idx="-1"  idxOne="20"  idxTwo="40"  coef="-.6655"/><qTerm  idx="-1"  idxOne="20"  idxTwo="48"  coef="-1.3287"/><qTerm  idx="-1"  idxOne="20"  idxTwo="49"  coef=".2393"/><qTerm  idx="-1"  idxOne="21"  idxTwo="21"  coef=".5944"/><qTerm  idx="-1"  idxOne="21"  idxTwo="27"  coef="1.9434"/><qTerm  idx="-1"  idxOne="21"  idxTwo="29"  coef="-1.2686"/><qTerm  idx="-1"  idxOne="21"  idxTwo="30"  coef=".4349"/><qTerm  idx="-1"  idxOne="21"  idxTwo="31"  coef="1.1241"/><qTerm  idx="-1"  idxOne="21"  idxTwo="33"  coef="-1.0026"/><qTerm  idx="-1"  idxOne="21"  idxTwo="35"  coef="-1.8319"/><qTerm  idx="-1"  idxOne="21"  idxTwo="37"  coef=".8334"/><qTerm  idx="-1"  idxOne="21"  idxTwo="39"  coef="-7.39e-2"/><qTerm  idx="-1"  idxOne="21"  idxTwo="40"  coef="-.7302"/><qTerm  idx="-1"  idxOne="21"  idxTwo="44"  coef="1.745"/><qTerm  idx="-1"  idxOne="21"  idxTwo="45"  coef="-1.6963"/><qTerm  idx="-1"  idxOne="22"  idxTwo="23"  coef="1.2164"/><qTerm  idx="-1"  idxOne="22"  idxTwo="41"  coef="-.3594"/><qTerm  idx="-1"  idxOne="22"  idxTwo="44"  coef=".4748"/><qTerm  idx="-1"  idxOne="22"  idxTwo="48"  coef="1.9715"/><qTerm  idx="-1"  idxOne="23"  idxTwo="28"  coef="1.0356"/><qTerm  idx="-1"  idxOne="23"  idxTwo="42"  coef="1.6674"/><qTerm  idx="-1"  idxOne="23"  idxTwo="46"  coef="-.1428"/><qTerm  idx="-1"  idxOne="23"  idxTwo="48"  coef="-1.7831"/><qTerm  idx="-1"  idxOne="23"  idxTwo="49"  coef=".3381"/><qTerm  idx="-1"  idxOne="24"  idxTwo="25"  coef="1.0744"/><qTerm  idx="-1"  idxOne="24"  idxTwo="33"  coef="-1.5289"/><qTerm  idx="-1"  idxOne="24"  idxTwo="34"  coef="-.2313"/><qTerm  idx="-1"  idxOne="24"  idxTwo="36"  coef="-.1564"/><qTerm  idx="-1"  idxOne="24"  idxTwo="37"  coef="1.3851"/><qTerm  idx="-1"  idxOne="24"  idxTwo="38"  coef="-1.9179"/><qTerm  idx="-1"  idxOne="24"  idxTwo="39"  coef="-1.8265"/><qTerm  idx="-1"  idxOne="24"  idxTwo="48"  coef="-1.742"/><qTerm  idx="-1"  idxOne="25"  idxTwo="29"  coef="-1.9463"/><qTerm  idx="-1"  idxOne="25"  idxTwo="31"  coef=".7949"/><qTerm  idx="-1"  idxOne="25"  idxTwo="32"  coef="1.2308"/><qTerm  idx="-1"  idxOne="25"  idxTwo="33"  coef="-1.1612"/><qTerm  idx="-1"  idxOne="25"  idxTwo="34"  coef=".5374"/><qTerm  idx="-1"  idxOne="25"  idxTwo="35"  coef="-.8498"/><qTerm  idx="-1"  idxOne="25"  idxTwo="36"  coef="1.306"/><qTerm  idx="-1"  idxOne="25"  idxTwo="37"  coef="1.3445"/><qTerm  idx="-1"  idxOne="25"  idxTwo="40"  coef="5.8e-3"/><qTerm  idx="-1"  idxOne="25"  idxTwo="46"  coef="-1.6651"/><qTerm  idx="-1"  idxOne="25"  idxTwo="49"  coef="1.1794"/><qTerm  idx="-1"  idxOne="26"  idxTwo="26"  coef="-1.8758"/><qTerm  idx="-1"  idxOne="26"  idxTwo="28"  coef=".4996"/><qTerm  idx="-1"  idxOne="26"  idxTwo="35"  coef="-1.5307"/><qTerm  idx="-1"  idxOne="26"  idxTwo="40"  coef="-.9833"/><qTerm  idx="-1"  idxOne="26"  idxTwo="45"  coef=".9771"/><qTerm  idx="-1"  idxOne="26"  idxTwo="46"  coef="-.4612"/><qTerm  idx="-1"  idxOne="27"  idxTwo="34"  coef=".61"/><qTerm  idx="-1"  idxOne="27"  idxTwo="38"  coef="-.6727"/><qTerm  idx="-1"  idxOne="27"  idxTwo="46"  coef=".3307"/><qTerm  idx="-1"  idxOne="28"  idxTwo="29"  coef="-.4576"/><qTerm  idx="-1"  idxOne="28"  idxTwo="35"  coef=".6436"/><qTerm  idx="-1"  idxOne="28"  idxTwo="37"  coef="1.5199"/><qTerm  idx="-1"  idxOne="28"  idxTwo="39"  coef="-1.95e-2"/><qTerm  idx="-1"  idxOne="28"  idxTwo="40"  coef="-1.0312"/><qTerm  idx="-1"  idxOne="28"  idxTwo="41"  coef=".4025"/><qTerm  idx="-1"  idxOne="28"  idxTwo="42"  coef="9.26e-2"/><qTerm  idx="-1"  idxOne="28"  idxTwo="44"  coef="-1.7827"/><qTerm  idx="-1"  idxOne="28"  idxTwo="46"  coef="-1.546"/><qTerm  idx="-1"  idxOne="28"  idxTwo="47"  coef="-1.4449"/><qTerm  idx="-1"  idxOne="29"  idxTwo="36"  coef="1.0219"/><qTerm  idx="-1"  idxOne="29"  idxTwo="40"  coef=".8771"/><qTerm  idx="-1"  idxOne="29"  idxTwo="41"  coef="-1.5399"/><qTerm  idx="-1"  idxOne="29"  idxTwo="43"  coef="-.1352"/><qTerm  idx="-1"  idxOne="29"  idxTwo="44"  coef="-.3673"/><qTerm  idx="-1"  idxOne="29"  idxTwo="45"  coef="1.6265"/><qTerm  idx="-1"  idxOne="29"  idxTwo="47"  coef="1.2285"/><qTerm  idx="-1"  idxOne="29"  idxTwo="48"  coef="-.6199"/><qTerm  idx="-1"  idxOne="30"  idxTwo="33"  coef=".9386"/><qTerm  idx="-1"  idxOne="30"  idxTwo="44"  coef="-.7139"/><qTerm  idx="-1"  idxOne="31"  idxTwo="32"  coef="-1.6215"/><qTerm  idx="-1"  idxOne="31"  idxTwo="35"  coef="1.5424"/><qTerm  idx="-1"  idxOne="31"  idxTwo="45"  coef=".7041"/><qTerm  idx="-1"  idxOne="32"  idxTwo="34"  coef="-1.7999"/><qTerm  idx="-1"  idxOne="32"  idxTwo="35"  coef="-.9156"/><qTerm  idx="-1"  idxOne="32"  idxTwo="36"  coef="1.8304"/><qTerm  idx="-1"  idxOne="32"  idxTwo="37"  coef="-.4421"/><qTerm  idx="-1"  idxOne="32"  idxTwo="42"  coef="1.6083"/><qTerm  idx="-1"  idxOne="32"  idxTwo="44"  coef="1.0554"/><qTerm  idx="-1"  idxOne="32"  idxTwo="46"  coef="-1.6907"/><qTerm  idx="-1"  idxOne="33"  idxTwo="34"  coef="-1.6937"/><qTerm  idx="-1"  idxOne="33"  idxTwo="35"  coef=".3193"/><qTerm  idx="-1"  idxOne="33"  idxTwo="44"  coef=".5921"/><qTerm  idx="-1"  idxOne="34"  idxTwo="34"  coef="6.3e-3"/><qTerm  idx="-1"  idxOne="34"  idxTwo="37"  coef="1.451"/><qTerm  idx="-1"  idxOne="34"  idxTwo="48"  coef="-.9223"/><qTerm  idx="-1"  idxOne="35"  idxTwo="39"  coef="-.5504"/><qTerm  idx="-1"  idxOne="35"  idxTwo="41"  coef="1.2044"/><qTerm  idx="-1"  idxOne="35"  idxTwo="47"  coef="1.4796"/><qTerm  idx="-1"  idxOne="36"  idxTwo="41"  coef="-1.3037"/><qTerm  idx="-1"  idxOne="36"  idxTwo="42"  coef="-1.3644"/><qTerm  idx="-1"  idxOne="36"  idxTwo="43"  coef=".2767"/><qTerm  idx="-1"  idxOne="36"  idxTwo="48"  coef="-.8121"/><qTerm  idx="-1"  idxOne="36"  idxTwo="49"  coef="1.9747"/><qTerm  idx="-1"  idxOne="37"  idxTwo="42"  coef="1.7683"/><qTerm  idx="-1"  idxOne="37"  idxTwo="47"  coef="1.5142"/><qTerm  idx="-1"  idxOne="38"  idxTwo="41"  coef="-1.353"/><qTerm  idx="-1"  idxOne="38"  idxTwo="46"  coef=".6712"/><qTerm  idx="-1"  idxOne="38"  idxTwo="48"  coef="-.2771"/><qTerm  idx="-1"  idxOne="39"  idxTwo="40"  coef="-.4632"/><qTerm  idx="-1"  idxOne="39"  idxTwo="49"  coef="1.6265"/><qTerm  idx="-1"  idxOne="40"  idxTwo="45"  coef=".108"/><qTerm  idx="-1"  idxOne="41"  idxTwo="44"  coef="3.05e-2"/><qTerm  idx="-1"  idxOne="41"  idxTwo="45"  coef="-.3346"/><qTerm  idx="-1"  idxOne="43"  idxTwo="44"  coef="-.9768"/><qTerm  idx="-1"  idxOne="43"  idxTwo="48"  coef=".7918"/><qTerm  idx="-1"  idxOne="44"  idxTwo="45"  coef="1.6806"/><qTerm  idx="-1"  idxOne="45"  idxTwo="46"  coef=".8768"/><qTerm  idx="-1"  idxOne="45"  idxTwo="49"  coef=".7363"/><qTerm  idx="-1"  idxOne="46"  idxTwo="49"  coef=".764"/><qTerm  idx="-1"  idxOne="48"  idxTwo="48"  coef=".9388"/></quadraticCoefficients></instanceData></osil>
